82 81 38 71 55 17 75 1 36 11 22 57 41 0 85 29 31 86 49 46 65 58 37 30 44 96 47 14 26 62 87 64 59 3 66 6 72 42 32 60 50 39 34 20 43 23 53 12 77 15 95 78 5 91 24 54 76 28 99 97 88 48 92 40 25 18 21 79 45 16 83 4 27 35 84 70 8 10 2 68 7 61 98 89 69 74 9 56 52 63 13 67 19 90 73 93 33 51 94 80 

